
  16    0


   0   8 2 3 4 5 12 13 14 15 
   9   3 11 10 6 
   8   3 9 7 6 
   4   2 8 7 
   1   1 6 
   9   1 16
   9   1 16
  10   1 16
   6   1 16
   2   1 16
   6   1 16
   2   1 16
  10   1 16
  10   1 16
   4   1 16
   0   0 
